p cnf 10 25
-10 9 8 0
-10 -9 8 0
-10 -6 -4 0
10 4 1 0
-10 -2 1 0
9 8 -5 0
-9 -7 6 0
9 -6 -5 0
-9 6 -3 0
8 -7 -6 0
8 7 -3 0
-8 4 -3 0
8 -3 -1 0
8 -2 -1 0
7 6 5 0
7 -6 -4 0
-7 -6 3 0
-7 6 1 0
7 -5 -2 0
-6 -5 2 0
5 4 -2 0
-5 -4 -1 0
4 -3 1 0
-4 -2 -1 0
-3 -2 -1 0
